row=10;
column=10;
colour = 10;
Board=[|2,9,9,9,9,9,6,6,6,6|2,9,9,9,9,9,1,1,1,6|2,2,2,1,1,1,1,1,1,6|2,2,2,2,2,2,2,1,1,6|2,2,2,2,2,2,7,7,7,7|2,2,2,2,2,3,3,3,3,3|2,2,2,5,5,3,4,3,3,4|2,5,5,5,5,4,4,4,4,4|2,2,5,5,8,8,8,4,10,10|2,2,2,5,8,8,8,8,8,10|];
